32	0

0	2	2	4
1	1	3
8	1	5
6	1	5
1	1	6
2	1	7
2	1	8
9	1	9
3	1	10
9	1	11
4	2	12	14
2	1	13
2	1	15
4	1	15
6	2	16	20
6	3	17	18	19
8	2	21	23
3	2	21	23
8	2	21	23
10	2	21	23
6	1	22
1	3	24	25	26
10	3	24	25	26
9	1	28
5	1	27
5	1	27
4	1	28
10	1	29
10	1	30
5	1	31
2	1	32
0	0
